NAME : XML100_3352_21
DIMENSION : 101
NB_CLUSTERS : 8
CLUSTERING_ALG : KMedoids
CLUSTERING_PARAMS : k(7)
CLUSTERS
1 0
2 1 5 11 24 26 32 35 38 39 50 56 62 73 84 94
3 22 25 27 28 31 36 44 49 71 80 85 88 90 93 96 99
4 21 40 45 51 59 60 63 74 78 81 83
5 7 12 13 15 17 19 20 30 33 41 42 47 53 58 65 67 68 69 70 76 86
6 3 8 10 29 34 37 48 57 66 72 89 91 92 95 98 100
7 9 16 23 46 55 61 75 77 87 97
8 2 4 6 14 18 43 52 54 64 79 82
EOF